545,139
756,-68
764,150
321,766
515,919
573,619
584,336
708,459
756,880
573,619
523,624
567,369
563,424
1166,249
764,150
755,178
469,194
178,485
178,327
469,194
792,64
468,298
521,325
482,470
1020,745
